(benchmark gametime
:status unknown
:logic QF_AUFBV
:extrafuns ((gtINDEX45  BitVec[32]))
:extrafuns ((gtFIELD__bitsForTID0__gtAGG____anonstruct_D_Work_4  Array[32:32]))
:extrafuns ((gtINDEX46  BitVec[32]))
:extrafuns ((gtAGG__rtDWork  BitVec[32]))
:extrafuns ((gtINDEX43  BitVec[32]))
:extrafuns ((gtINDEX44  BitVec[32]))
:extrafuns ((gtINDEX41  BitVec[32]))
:extrafuns ((gtINDEX42  BitVec[32]))
:extrafuns ((gtINDEX39  BitVec[32]))
:extrafuns ((gtINDEX40  BitVec[32]))
:extrafuns ((gtINDEX38  BitVec[32]))
:extrafuns ((gtINDEX37  BitVec[32]))
:extrafuns ((gtINDEX36  BitVec[32]))
:extrafuns ((gtINDEX35  BitVec[32]))
:extrafuns ((gtINDEX33  BitVec[32]))
:extrafuns ((gtINDEX34  BitVec[32]))
:extrafuns ((gtINDEX31  BitVec[32]))
:extrafuns ((gtINDEX32  BitVec[32]))
:extrafuns ((gtINDEX29  BitVec[32]))
:extrafuns ((gtINDEX30  BitVec[32]))
:extrafuns ((gtINDEX27  BitVec[32]))
:extrafuns ((gtINDEX28  BitVec[32]))
:extrafuns ((gtINDEX25  BitVec[32]))
:extrafuns ((gtINDEX26  BitVec[32]))
:extrafuns ((gtINDEX23  BitVec[32]))
:extrafuns ((gtINDEX24  BitVec[32]))
:extrafuns ((gtINDEX21  BitVec[32]))
:extrafuns ((gtINDEX22  BitVec[32]))
:extrafuns ((gtINDEX19  BitVec[32]))
:extrafuns ((gtINDEX20  BitVec[32]))
:extrafuns ((gtINDEX18  BitVec[32]))
:extrafuns ((gtINDEX17  BitVec[32]))
:extrafuns ((gtINDEX16  BitVec[32]))
:extrafuns ((gtINDEX14  BitVec[32]))
:extrafuns ((gtINDEX15  BitVec[32]))
:extrafuns ((gtINDEX12  BitVec[32]))
:extrafuns ((gtINDEX13  BitVec[32]))
:extrafuns ((gtINDEX10  BitVec[32]))
:extrafuns ((gtINDEX11  BitVec[32]))
:extrafuns ((gtINDEX8  BitVec[32]))
:extrafuns ((gtINDEX9  BitVec[32]))
:extrafuns ((gtINDEX6  BitVec[32]))
:extrafuns ((gtINDEX7  BitVec[32]))
:extrafuns ((gtINDEX4  BitVec[32]))
:extrafuns ((gtINDEX5  BitVec[32]))
:extrafuns ((gtINDEX2  BitVec[32]))
:extrafuns ((gtINDEX3  BitVec[32]))
:extrafuns ((gtINDEX0  BitVec[32]))
:extrafuns ((gtINDEX1  BitVec[32]))
:extrafuns ((gtFIELD__is_Eng__gtAGG____anonstruct_bitsForTID0_5_1_  Array[32:1]))
:extrafuns ((gtFIELD__is_Eng__gtAGG____anonstruct_bitsForTID0_5_2_  Array[32:1]))
:extrafuns ((sf_previousEvent_1_  BitVec[32]))
:extrafuns ((sfEvent__2_  BitVec[32]))
:extrafuns ((gtFIELD__is_Eng__gtAGG____anonstruct_bitsForTID0_5  Array[32:1]))
:extrafuns ((gtFIELD__sent__gtAGG____anonstruct_D_Work_4_1_  Array[32:32]))
:extrafuns ((gtFIELD__sent__gtAGG____anonstruct_D_Work_4_2_  Array[32:32]))
:extrafuns ((gtFIELD__is_active_Eng__gtAGG____anonstruct_bitsForTID0_5  Array[32:1]))
:extrafuns ((gtFIELD__is_active_PURI__gtAGG____anonstruct_bitsForTID0_5  Array[32:1]))
:extrafuns ((gtFIELD__is_active_PVRP__gtAGG____anonstruct_bitsForTID0_5  Array[32:1]))
:extrafuns ((gtFIELD__is_active_PPVARP__gtAGG____anonstruct_bitsForTID0_5  Array[32:1]))
:extrafuns ((gtFIELD__is_active_PLRI__gtAGG____anonstruct_bitsForTID0_5  Array[32:1]))
:extrafuns ((sfEvent__1_  BitVec[32]))
:extrafuns ((gtFIELD__is_PAVI__gtAGG____anonstruct_bitsForTID0_5  Array[32:3]))
:extrafuns ((gtFIELD__is_active_PAVI__gtAGG____anonstruct_bitsForTID0_5  Array[32:1]))
:extrafuns ((sfEvent_  BitVec[32]))
:extrafuns ((gtFIELD__sent__gtAGG____anonstruct_D_Work_4  Array[32:32]))
:extrapreds ((constraint82 ))
:extrapreds ((constraint81 ))
:extrapreds ((constraint80 ))
:extrapreds ((constraint79 ))
:extrapreds ((constraint78 ))
:extrapreds ((constraint77 ))
:extrapreds ((constraint76 ))
:extrapreds ((constraint75 ))
:extrapreds ((constraint74 ))
:extrapreds ((constraint73 ))
:extrapreds ((constraint72 ))
:extrapreds ((constraint71 ))
:extrapreds ((constraint70 ))
:extrapreds ((constraint69 ))
:extrapreds ((constraint68 ))
:extrapreds ((constraint67 ))
:extrapreds ((constraint66 ))
:extrapreds ((constraint65 ))
:extrapreds ((constraint64 ))
:extrapreds ((constraint63 ))
:extrapreds ((constraint62 ))
:extrapreds ((constraint61 ))
:extrapreds ((constraint60 ))
:extrapreds ((constraint59 ))
:extrapreds ((constraint58 ))
:extrapreds ((constraint57 ))
:extrapreds ((constraint56 ))
:extrapreds ((constraint55 ))
:extrapreds ((constraint54 ))
:extrapreds ((constraint53 ))
:extrapreds ((constraint52 ))
:extrapreds ((constraint51 ))
:extrapreds ((constraint50 ))
:extrapreds ((constraint49 ))
:extrapreds ((constraint48 ))
:extrapreds ((constraint47 ))
:extrapreds ((constraint46 ))
:extrapreds ((constraint45 ))
:extrapreds ((constraint44 ))
:extrapreds ((constraint43 ))
:extrapreds ((constraint42 ))
:extrapreds ((constraint41 ))
:extrapreds ((constraint40 ))
:extrapreds ((constraint39 ))
:extrapreds ((constraint38 ))
:extrapreds ((constraint37 ))
:extrapreds ((constraint36 ))
:extrapreds ((constraint35 ))
:extrapreds ((constraint34 ))
:extrapreds ((constraint33 ))
:extrapreds ((constraint32 ))
:extrapreds ((constraint31 ))
:extrapreds ((constraint30 ))
:extrapreds ((constraint29 ))
:extrapreds ((constraint28 ))
:extrapreds ((constraint27 ))
:extrapreds ((constraint26 ))
:extrapreds ((constraint25 ))
:extrapreds ((constraint24 ))
:extrapreds ((constraint23 ))
:extrapreds ((constraint22 ))
:extrapreds ((constraint21 ))
:extrapreds ((constraint20 ))
:extrapreds ((constraint19 ))
:extrapreds ((constraint18 ))
:extrapreds ((constraint17 ))
:extrapreds ((constraint16 ))
:extrapreds ((constraint15 ))
:extrapreds ((constraint14 ))
:extrapreds ((constraint13 ))
:extrapreds ((constraint12 ))
:extrapreds ((constraint11 ))
:extrapreds ((constraint10 ))
:extrapreds ((constraint9 ))
:extrapreds ((constraint8 ))
:extrapreds ((constraint7 ))
:extrapreds ((constraint6 ))
:extrapreds ((constraint5 ))
:extrapreds ((constraint4 ))
:extrapreds ((constraint3 ))
:extrapreds ((constraint2 ))
:extrapreds ((constraint1 ))
:extrapreds ((constraint0 ))
:formula
(flet ($x443 (and constraint0 constraint1 constraint2 constraint3 constraint4 constraint5 constraint6 constraint7 constraint8 constraint9 constraint10 constraint11 constraint12 constraint13 constraint14 constraint15 constraint16 constraint17 constraint18 constraint19 constraint20 constraint21 constraint22 constraint23 constraint24 constraint25 constraint26 constraint27 constraint28 constraint29 constraint30 constraint31 constraint32 constraint33 constraint34 constraint35 constraint36 constraint37 constraint38 constraint39 constraint40 constraint41 constraint42 constraint43 constraint44 constraint45 constraint46 constraint47 constraint48 constraint49 constraint50 constraint51 constraint52 constraint53 constraint54 constraint55 constraint56 constraint57 constraint58 constraint59 constraint60 constraint61 constraint62 constraint63 constraint64 constraint65 constraint66 constraint67 constraint68 constraint69 constraint70 constraint71 constraint72 constraint73 constraint74 constraint75 constraint76 constraint77 constraint78 constraint79 constraint80 constraint81 constraint82))
(flet ($x275 (= gtINDEX46 (select gtFIELD__bitsForTID0__gtAGG____anonstruct_D_Work_4 gtINDEX45)))
(flet ($x271 (= gtINDEX44 (select gtFIELD__bitsForTID0__gtAGG____anonstruct_D_Work_4 gtINDEX43)))
(flet ($x267 (= gtINDEX42 (select gtFIELD__bitsForTID0__gtAGG____anonstruct_D_Work_4 gtINDEX41)))
(flet ($x263 (= gtINDEX40 (select gtFIELD__bitsForTID0__gtAGG____anonstruct_D_Work_4 gtINDEX39)))
(flet ($x255 (= gtINDEX34 (select gtFIELD__bitsForTID0__gtAGG____anonstruct_D_Work_4 gtINDEX33)))
(flet ($x251 (= gtINDEX32 (select gtFIELD__bitsForTID0__gtAGG____anonstruct_D_Work_4 gtINDEX31)))
(flet ($x247 (= gtINDEX30 (select gtFIELD__bitsForTID0__gtAGG____anonstruct_D_Work_4 gtINDEX29)))
(flet ($x243 (= gtINDEX28 (select gtFIELD__bitsForTID0__gtAGG____anonstruct_D_Work_4 gtINDEX27)))
(flet ($x239 (= gtINDEX26 (select gtFIELD__bitsForTID0__gtAGG____anonstruct_D_Work_4 gtINDEX25)))
(flet ($x235 (= gtINDEX24 (select gtFIELD__bitsForTID0__gtAGG____anonstruct_D_Work_4 gtINDEX23)))
(flet ($x231 (= gtINDEX22 (select gtFIELD__bitsForTID0__gtAGG____anonstruct_D_Work_4 gtINDEX21)))
(flet ($x227 (= gtINDEX20 (select gtFIELD__bitsForTID0__gtAGG____anonstruct_D_Work_4 gtINDEX19)))
(flet ($x220 (= gtINDEX15 (select gtFIELD__bitsForTID0__gtAGG____anonstruct_D_Work_4 gtINDEX14)))
(flet ($x216 (= gtINDEX13 (select gtFIELD__bitsForTID0__gtAGG____anonstruct_D_Work_4 gtINDEX12)))
(flet ($x212 (= gtINDEX11 (select gtFIELD__bitsForTID0__gtAGG____anonstruct_D_Work_4 gtINDEX10)))
(flet ($x208 (= gtINDEX9 (select gtFIELD__bitsForTID0__gtAGG____anonstruct_D_Work_4 gtINDEX8)))
(flet ($x204 (= gtINDEX7 (select gtFIELD__bitsForTID0__gtAGG____anonstruct_D_Work_4 gtINDEX6)))
(flet ($x200 (= gtINDEX5 (select gtFIELD__bitsForTID0__gtAGG____anonstruct_D_Work_4 gtINDEX4)))
(flet ($x196 (= gtINDEX3 (select gtFIELD__bitsForTID0__gtAGG____anonstruct_D_Work_4 gtINDEX2)))
(flet ($x192 (= gtINDEX1 (select gtFIELD__bitsForTID0__gtAGG____anonstruct_D_Work_4 gtINDEX0)))
(let (?x176 (extract[0:0] bv1[32]))
(let (?x186 (store gtFIELD__is_Eng__gtAGG____anonstruct_bitsForTID0_5_1_ gtINDEX46 ?x176))
(flet ($x347 (iff constraint35 (= gtFIELD__is_Eng__gtAGG____anonstruct_bitsForTID0_5_2_ ?x186)))
(let (?x182 (select gtFIELD__is_Eng__gtAGG____anonstruct_bitsForTID0_5_1_ gtINDEX44))
(let (?x177 (store gtFIELD__is_Eng__gtAGG____anonstruct_bitsForTID0_5 gtINDEX42 ?x176))
(flet ($x341 (iff constraint32 (= gtFIELD__is_Eng__gtAGG____anonstruct_bitsForTID0_5_1_ ?x177)))
(let (?x173 (zero_extend[31] (select gtFIELD__is_Eng__gtAGG____anonstruct_bitsForTID0_5 gtINDEX40)))
(let (?x169 (store gtFIELD__sent__gtAGG____anonstruct_D_Work_4_1_ gtINDEX38 bv0[32]))
(flet ($x337 (iff constraint30 (= gtFIELD__sent__gtAGG____anonstruct_D_Work_4_2_ ?x169)))
(let (?x101 (bvmul bv4294967295[32] bv1[32]))
(flet ($x167 (= (select gtFIELD__sent__gtAGG____anonstruct_D_Work_4_1_ gtINDEX37) ?x101))
(flet ($x163 (= (select gtFIELD__sent__gtAGG____anonstruct_D_Work_4_1_ gtINDEX36) bv9[32]))
(flet ($x159 (= (select gtFIELD__sent__gtAGG____anonstruct_D_Work_4_1_ gtINDEX35) bv4[32]))
(let (?x155 (zero_extend[31] (select gtFIELD__is_Eng__gtAGG____anonstruct_bitsForTID0_5 gtINDEX34)))
(let (?x149 (select gtFIELD__is_active_Eng__gtAGG____anonstruct_bitsForTID0_5 gtINDEX32))
(let (?x143 (select gtFIELD__is_active_PURI__gtAGG____anonstruct_bitsForTID0_5 gtINDEX30))
(let (?x137 (select gtFIELD__is_active_PVRP__gtAGG____anonstruct_bitsForTID0_5 gtINDEX28))
(let (?x131 (select gtFIELD__is_active_PPVARP__gtAGG____anonstruct_bitsForTID0_5 gtINDEX26))
(let (?x125 (select gtFIELD__is_active_PLRI__gtAGG____anonstruct_bitsForTID0_5 gtINDEX24))
(let (?x117 (select gtFIELD__is_PAVI__gtAGG____anonstruct_bitsForTID0_5 gtINDEX22))
(let (?x112 (select gtFIELD__is_active_PAVI__gtAGG____anonstruct_bitsForTID0_5 gtINDEX20))
(flet ($x103 (= gtFIELD__sent__gtAGG____anonstruct_D_Work_4_1_ (store gtFIELD__sent__gtAGG____anonstruct_D_Work_4 gtINDEX18 ?x101)))
(flet ($x98 (= (select gtFIELD__sent__gtAGG____anonstruct_D_Work_4 gtINDEX17) bv9[32]))
(flet ($x93 (= (select gtFIELD__sent__gtAGG____anonstruct_D_Work_4 gtINDEX16) bv4[32]))
(let (?x88 (zero_extend[31] (select gtFIELD__is_Eng__gtAGG____anonstruct_bitsForTID0_5 gtINDEX15)))
(let (?x82 (select gtFIELD__is_active_Eng__gtAGG____anonstruct_bitsForTID0_5 gtINDEX13))
(let (?x76 (select gtFIELD__is_active_PURI__gtAGG____anonstruct_bitsForTID0_5 gtINDEX11))
(let (?x70 (select gtFIELD__is_active_PVRP__gtAGG____anonstruct_bitsForTID0_5 gtINDEX9))
(let (?x64 (select gtFIELD__is_active_PPVARP__gtAGG____anonstruct_bitsForTID0_5 gtINDEX7))
(let (?x58 (select gtFIELD__is_active_PLRI__gtAGG____anonstruct_bitsForTID0_5 gtINDEX5))
(let (?x48 (zero_extend[29] (select gtFIELD__is_PAVI__gtAGG____anonstruct_bitsForTID0_5 gtINDEX3)))
(let (?x41 (select gtFIELD__is_active_PAVI__gtAGG____anonstruct_bitsForTID0_5 gtINDEX1))
(flet ($x442 (and (iff constraint0 (not (= sfEvent_ bv8[32]))) (iff constraint1 (not (= (zero_extend[31] ?x41) bv0[32]))) (iff constraint2 (= ?x48 bv1[32])) (iff constraint3 (not (= sfEvent_ bv2[32]))) (iff constraint4 (not (= sfEvent_ bv3[32]))) (iff constraint5 (not (not (= (zero_extend[31] ?x58) bv0[32])))) (iff constraint6 (not (not (= (zero_extend[31] ?x64) bv0[32])))) (iff constraint7 (not (not (= (zero_extend[31] ?x70) bv0[32])))) (iff constraint8 (not (not (= (zero_extend[31] ?x76) bv0[32])))) (iff constraint9 (not (= (zero_extend[31] ?x82) bv0[32]))) (iff constraint10 (= ?x88 bv1[32])) (iff constraint11 (not $x93)) (iff constraint12 $x98) (iff constraint13 $x103) (iff constraint14 (= sf_previousEvent_1_ sfEvent_)) (iff constraint15 (= sfEvent__1_ bv6[32])) (iff constraint16 (not (= sfEvent__1_ bv8[32]))) (iff constraint17 (not (= (zero_extend[31] ?x112) bv0[32]))) (iff constraint18 (= (zero_extend[29] ?x117) bv1[32])) (iff constraint19 (not (= sfEvent__1_ bv2[32]))) (iff constraint20 (not (= sfEvent__1_ bv3[32]))) (iff constraint21 (not (not (= (zero_extend[31] ?x125) bv0[32])))) (iff constraint22 (not (not (= (zero_extend[31] ?x131) bv0[32])))) (iff constraint23 (not (not (= (zero_extend[31] ?x137) bv0[32])))) (iff constraint24 (not (not (= (zero_extend[31] ?x143) bv0[32])))) (iff constraint25 (not (= (zero_extend[31] ?x149) bv0[32]))) (iff constraint26 (= ?x155 bv1[32])) (iff constraint27 (not $x159)) (iff constraint28 (not $x163)) (iff constraint29 $x167) $x337 (iff constraint31 (= ?x173 bv1[32])) $x341 (iff constraint33 (= sfEvent__2_ sf_previousEvent_1_)) (iff constraint34 (= (zero_extend[31] ?x182) bv1[32])) $x347 (iff constraint36 (= gtINDEX0 gtAGG__rtDWork)) (iff constraint37 $x192) (iff constraint38 (= gtINDEX2 gtAGG__rtDWork)) (iff constraint39 $x196) (iff constraint40 (= gtINDEX4 gtAGG__rtDWork)) (iff constraint41 $x200) (iff constraint42 (= gtINDEX6 gtAGG__rtDWork)) (iff constraint43 $x204) (iff constraint44 (= gtINDEX8 gtAGG__rtDWork)) (iff constraint45 $x208) (iff constraint46 (= gtINDEX10 gtAGG__rtDWork)) (iff constraint47 $x212) (iff constraint48 (= gtINDEX12 gtAGG__rtDWork)) (iff constraint49 $x216) (iff constraint50 (= gtINDEX14 gtAGG__rtDWork)) (iff constraint51 $x220) (iff constraint52 (= gtINDEX16 gtAGG__rtDWork)) (iff constraint53 (= gtINDEX17 gtAGG__rtDWork)) (iff constraint54 (= gtINDEX18 gtAGG__rtDWork)) (iff constraint55 (= gtINDEX19 gtAGG__rtDWork)) (iff constraint56 $x227) (iff constraint57 (= gtINDEX21 gtAGG__rtDWork)) (iff constraint58 $x231) (iff constraint59 (= gtINDEX23 gtAGG__rtDWork)) (iff constraint60 $x235) (iff constraint61 (= gtINDEX25 gtAGG__rtDWork)) (iff constraint62 $x239) (iff constraint63 (= gtINDEX27 gtAGG__rtDWork)) (iff constraint64 $x243) (iff constraint65 (= gtINDEX29 gtAGG__rtDWork)) (iff constraint66 $x247) (iff constraint67 (= gtINDEX31 gtAGG__rtDWork)) (iff constraint68 $x251) (iff constraint69 (= gtINDEX33 gtAGG__rtDWork)) (iff constraint70 $x255) (iff constraint71 (= gtINDEX35 gtAGG__rtDWork)) (iff constraint72 (= gtINDEX36 gtAGG__rtDWork)) (iff constraint73 (= gtINDEX37 gtAGG__rtDWork)) (iff constraint74 (= gtINDEX38 gtAGG__rtDWork)) (iff constraint75 (= gtINDEX39 gtAGG__rtDWork)) (iff constraint76 $x263) (iff constraint77 (= gtINDEX41 gtAGG__rtDWork)) (iff constraint78 $x267) (iff constraint79 (= gtINDEX43 gtAGG__rtDWork)) (iff constraint80 $x271) (iff constraint81 (= gtINDEX45 gtAGG__rtDWork)) (iff constraint82 $x275)))
(and $x442 $x443)))))))))))))))))))))))))))))))))))))))))))))))))))))))
)
